INPUT_PARAMETERS
# Created by Atomic Simulation Enviroment
atom_file           icsd_104196-Zn1Te1
kpoint_file         KPT
pseudo_dir          ./
calculation         nscf
nspin               1
ks_solver           genelpa
basis_type          lcao
mixing_type         pulay
mixing_beta         0.4
gamma_only          0
ntype 2
nbands 24
calculation nscf
#Parameters (Accuracy)
ecutwfc 60
niter 50
dr2 1.0e-9
ethr 1.0e-7
#Parameters (File)
start_charge file
out_band 1
#Parameters (Smearing)
smearing gaussian
sigma 0.02


