INPUT_PARAMETERS
# Created by Atomic Simulation Enviroment
atom_file           icsd_23076-Sr1Ti1O3
kpoint_file         KPT
pseudo_dir          ./
calculation         cell-relax
nspin               1
ks_solver           genelpa
basis_type          lcao
mixing_type         pulay
mixing_beta         0.4
gamma_only          0
ntype 3
#Parameters (Accuracy)
ecutwfc 60
nstep 40
niter 50
dr2 1.0e-9
ethr 1.0e-7
force_thr_ev 0.01
move_method cg
trust_radius_ini 0.5
press1 0
press2 0
press3 0
fixed_axes None
stress_thr 1
out_stru 1
#Parameters (File)
start_charge file
#Parameters (Smearing)
smearing gaussian
sigma 0.02


