INPUT_PARAMETERS
# Created by Atomic Simulation Enviroment
atom_file           icsd_9852-Ti2O4
kpoint_file         KPT
pseudo_dir          ./
calculation         scf
ntype               2
nspin               2
ecutwfc             60
dr2                 1e-06
ks_solver           genelpa
niter               100
basis_type          lcao
smearing            gauss
sigma               0.002
mixing_type         pulay
mixing_beta         0.4
gamma_only          0


