ATOMIC_SPECIES
Sr  87.62         Sr_ONCV_PBE-1.0.upf
Ti  47.867        Ti_ONCV_PBE-1.0.upf
O   15.999        O_ONCV_PBE-1.0.upf

NUMERICAL_ORBITAL
Sr_gga_10au_60Ry_4s2p1d.orb
Ti_gga_9au_60Ry_4s2p2d1f.orb
O_gga_7au_60Ry_2s2p1d.orb

LATTICE_CONSTANT
1.889726125 

LATTICE_VECTORS
3.9050000000      0.0000000000      0.0000000000      
0.0000000000      3.9050000000      0.0000000000      
0.0000000000      0.0000000000      3.9050000000      

ATOMIC_POSITIONS
Direct

Sr
1.0000000000
1
0.0000000000   0.0000000000   0.0000000000   1   1   1   
Ti
1.0000000000
1
0.5000000000   0.5000000000   0.5000000000   1   1   1   
O
1.0000000000
3
0.5000000000   0.5000000000   0.0000000000   1   1   1   
0.5000000000   0.0000000000   0.5000000000   1   1   1   
0.0000000000   0.5000000000   0.5000000000   1   1   1   
