ATOMIC_SPECIES
Ti  47.867        Ti_ONCV_PBE-1.0.upf
O   15.999        O_ONCV_PBE-1.0.upf

NUMERICAL_ORBITAL
Ti_gga_9au_60Ry_4s2p2d1f.orb
O_gga_7au_60Ry_2s2p1d.orb

LATTICE_CONSTANT
1.889726125 

LATTICE_VECTORS
-1.892100000      1.8921000000      4.7573000000      
1.8921000000      -1.892100000      4.7573000000      
1.8921000000      1.8921000000      -4.757300000      

ATOMIC_POSITIONS
Direct

Ti
1.0000000000
2
0.7500000000   0.2500000000   0.5000000000   1   1   1   
0.0000000000   0.0000000000   0.0000000000   1   1   1   
O
1.0000000000
4
0.9581000000   0.4581000000   0.5000000000   1   1   1   
0.7919000000   0.7919000000   0.0000000000   1   1   1   
0.5419000000   0.0419000000   0.5000000000   1   1   1   
0.2081000000   0.2081000000   0.0000000000   1   1   1   
