INPUT_PARAMETERS
# Created by Atomic Simulation Enviroment
atom_file           icsd_23076-Sr1Ti1O3
kpoint_file         KPT
pseudo_dir          ./
calculation         scf
nspin               2
ks_solver           genelpa
basis_type          lcao
mixing_type         pulay
mixing_beta         0.4
gamma_only          0
ntype 3
out_charge 1
#Parameters (Accuracy)
ecutwfc 60
niter 50
dr2 1.0e-9
ethr 1.0e-7
#Parameters (File)
start_charge file
#Parameters (Smearing)
smearing gaussian
sigma 0.02


