ATOMIC_SPECIES
Zn  65.38         Zn_ONCV_PBE-1.0.upf
Te  127.6         Te_ONCV_PBE-1.0.upf

NUMERICAL_ORBITAL
Zn_gga_9au_60Ry_4s2p2d1f.orb
Te_gga_9au_60Ry_2s2p2d.orb

LATTICE_CONSTANT
1.889726125 

LATTICE_VECTORS
0.0000000000      3.0395000000      3.0395000000      
3.0395000000      0.0000000000      3.0395000000      
3.0395000000      3.0395000000      0.0000000000      

ATOMIC_POSITIONS
Direct

Zn
1.0000000000
1
0.0000000000   0.0000000000   0.0000000000   1   1   1   
Te
1.0000000000
1
0.2500000000   0.2500000000   0.2500000000   1   1   1   
