Zn1 Te1
1.0
0.000000 3.039500 3.039500
3.039500 0.000000 3.039500
3.039500 3.039500 0.000000
Zn Te
1 1
direct
0.000000 0.000000 0.000000 Zn2+
0.250000 0.250000 0.250000 Te2-
