ATOMIC_SPECIES
Sr 87.62 Sr_ONCV_PBE-1.0.upf
Ti 47.867 Ti_ONCV_PBE-1.0.upf
O 15.999 O_ONCV_PBE-1.0.upf

NUMERICAL_ORBITAL
Sr_gga_10au_60Ry_4s2p1d.orb
Ti_gga_9au_60Ry_4s2p2d1f.orb
O_gga_7au_60Ry_2s2p1d.orb

LATTICE_CONSTANT
1.889726125

LATTICE_VECTORS
3.90805520605 3.14695718236e-15 8.34080448713e-17 #latvec1
4.38792103379e-15 3.90805520605 -1.68741922845e-17 #latvec2
5.83173838119e-15 -5.12283036462e-15 3.90805520605 #latvec3

ATOMIC_POSITIONS
Direct

Sr #label
1 #magnetism
1 #number of atoms
0 0 0 1 1 1

Ti #label
1 #magnetism
1 #number of atoms
0.5 0.5 0.5 1 1 1

O #label
1 #magnetism
3 #number of atoms
0.5 0.5 0 1 1 1
0.5 0 0.5 1 1 1
0 0.5 0.5 1 1 1
