INPUT_PARAMETERS
# Created by Atomic Simulation Enviroment
atom_file           icsd_164605-Zr1H2
kpoint_file         KPT
pseudo_dir          ./
calculation         nscf
ntype               2
nspin               2
nbands              34
ecutwfc             60
ethr                1e-07
dr2                 1e-09
start_charge        file
out_band            1
ks_solver           genelpa
niter               50
basis_type          lcao
smearing            gaussian
sigma               0.02
mixing_type         pulay
mixing_beta         0.4
gamma_only          0


