ATOMIC_SPECIES
Zr  91.224        Zr_ONCV_PBE-1.0.upf
H   1.008         H_ONCV_PBE-1.0.upf

NUMERICAL_ORBITAL
Zr_gga_9au_60Ry_4s2p2d1f.orb
H_gga_8au_60Ry_2s1p.orb

LATTICE_CONSTANT
1.889726125 

LATTICE_VECTORS
0.0000000000      2.4044340000      2.4044340000      
2.4044340000      -0.000000000      2.4044340000      
2.4044340000      2.4044340000      0.0000000000      

ATOMIC_POSITIONS
Direct

Zr
1.0000000000
1
0.0000000000   0.0000000000   0.0000000000   1   1   1   
H
1.0000000000
2
0.7500000000   0.7500000000   0.7500000000   1   1   1   
0.2500000000   0.2500000000   0.2500000000   1   1   1   
