ATOMIC_SPECIES
Si  28.085        Si_ONCV_PBE-1.0.upf

NUMERICAL_ORBITAL
Si_gga_8au_60Ry_2s2p1d.orb

LATTICE_CONSTANT
1.889726125 

LATTICE_VECTORS
0.0000000000      2.7153550000      2.7153550000      
2.7153550000      0.0000000000      2.7153550000      
2.7153550000      2.7153550000      0.0000000000      

ATOMIC_POSITIONS
Direct

Si
1.0000000000
2
0.2500000000   0.2500000000   0.2500000000   1   1   1   
0.0000000000   0.0000000000   0.0000000000   1   1   1   
