ATOMIC_SPECIES
Zn  65.38         Zn_ONCV_PBE-1.0.upf
Te  127.6         Te_ONCV_PBE-1.0.upf

NUMERICAL_ORBITAL
Zn_gga_9au_60Ry_4s2p2d1f.orb
Te_gga_9au_60Ry_2s2p2d.orb

LATTICE_CONSTANT
1.0

LATTICE_VECTORS
 4.2469625558531767    0.0000006950861824    0.0000001075570893
 0.0000006925591052    4.2469619949160142    0.0000000202640022
 0.0000001448765217    0.0000000336066680    5.6047639213344755

ATOMIC_POSITIONS
Direct

Zn
1.0000000000
4
0.0000000000   0.0000000000   0.0000000000   1   1   1
0.0000000000   0.5000000000   0.5000000000   1   1   1
0.5000000000   0.0000000000   0.5000000000   1   1   1
0.5000000000   0.5000000000   0.0000000000   1   1   1
Te
1.0000000000
4
0.7500000000   0.7500000000   0.2500000000   1   1   1
0.7500000000   0.2500000000   0.7500000000   1   1   1
0.2500000000   0.7500000000   0.7500000000   1   1   1
0.2500000000   0.2500000000   0.2500000000   1   1   1