Sr1 Ti1 O3
1.0
3.905000 0.000000 0.000000
0.000000 3.905000 0.000000
0.000000 0.000000 3.905000
Sr Ti O
1 1 3
direct
0.000000 0.000000 0.000000 Sr2+
0.500000 0.500000 0.500000 Ti4+
0.500000 0.500000 0.000000 O2-
0.500000 0.000000 0.500000 O2-
0.000000 0.500000 0.500000 O2-
